c Created with the Wolfram Language : www.wolfram.com
c 
p edge 60 393
e 1 6
e 2 6
e 3 6
e 4 6
e 5 8
e 1 9
e 4 9
e 5 9
e 5 10
e 8 11
e 8 12
e 7 13
e 8 13
e 1 14
e 13 14
e 8 15
e 13 15
e 9 16
e 10 17
e 14 17
e 2 18
e 7 18
e 8 18
e 9 18
e 17 18
e 3 19
e 16 20
e 2 21
e 4 21
e 9 21
e 10 21
e 11 21
e 18 21
e 20 21
e 2 22
e 9 22
e 12 22
e 13 22
e 16 22
e 17 22
e 21 22
e 2 23
e 4 23
e 6 23
e 9 23
e 15 23
e 20 23
e 11 24
e 13 24
e 16 24
e 21 24
e 2 25
e 9 25
e 11 25
e 16 25
e 17 25
e 4 26
e 5 26
e 6 26
e 9 26
e 16 26
e 18 26
e 22 26
e 23 26
e 12 27
e 14 27
e 15 27
e 23 27
e 3 28
e 9 28
e 10 28
e 22 28
e 24 28
e 25 28
e 6 29
e 7 29
e 12 29
e 25 29
e 28 29
e 2 30
e 4 30
e 5 30
e 8 30
e 11 30
e 13 30
e 14 30
e 15 30
e 28 30
e 29 30
e 2 31
e 6 31
e 7 31
e 12 31
e 18 31
e 19 31
e 20 31
e 25 31
e 27 31
e 30 31
e 13 32
e 24 32
e 26 32
e 30 32
e 4 33
e 9 33
e 14 33
e 16 33
e 22 33
e 25 33
e 27 33
e 28 33
e 29 33
e 32 33
e 4 34
e 6 34
e 8 34
e 9 34
e 11 34
e 14 34
e 22 34
e 24 34
e 26 34
e 31 34
e 5 35
e 11 35
e 16 35
e 20 35
e 23 35
e 34 35
e 3 36
e 4 36
e 7 36
e 12 36
e 17 36
e 20 36
e 22 36
e 23 36
e 24 36
e 3 37
e 19 37
e 23 37
e 26 37
e 6 38
e 10 38
e 14 38
e 18 38
e 19 38
e 22 38
e 24 38
e 29 38
e 30 38
e 32 38
e 36 38
e 10 39
e 18 39
e 20 39
e 21 39
e 23 39
e 27 39
e 6 40
e 7 40
e 11 40
e 12 40
e 14 40
e 19 40
e 22 40
e 24 40
e 27 40
e 28 40
e 29 40
e 36 40
e 38 40
e 39 40
e 1 41
e 6 41
e 8 41
e 12 41
e 22 41
e 26 41
e 28 41
e 29 41
e 30 41
e 33 41
e 37 41
e 39 41
e 7 42
e 13 42
e 19 42
e 24 42
e 25 42
e 27 42
e 31 42
e 40 42
e 4 43
e 6 43
e 11 43
e 14 43
e 16 43
e 17 43
e 20 43
e 21 43
e 26 43
e 28 43
e 37 43
e 38 43
e 42 43
e 1 44
e 2 44
e 3 44
e 5 44
e 6 44
e 11 44
e 14 44
e 15 44
e 16 44
e 23 44
e 32 44
e 34 44
e 36 44
e 38 44
e 1 45
e 6 45
e 8 45
e 24 45
e 25 45
e 27 45
e 30 45
e 32 45
e 38 45
e 43 45
e 5 46
e 15 46
e 21 46
e 22 46
e 28 46
e 31 46
e 40 46
e 41 46
e 43 46
e 44 46
e 45 46
e 8 47
e 18 47
e 23 47
e 24 47
e 28 47
e 30 47
e 32 47
e 34 47
e 38 47
e 9 48
e 10 48
e 14 48
e 15 48
e 21 48
e 24 48
e 30 48
e 37 48
e 3 49
e 7 49
e 10 49
e 12 49
e 13 49
e 18 49
e 19 49
e 20 49
e 21 49
e 22 49
e 26 49
e 44 49
e 1 50
e 2 50
e 3 50
e 8 50
e 21 50
e 23 50
e 31 50
e 35 50
e 36 50
e 43 50
e 44 50
e 3 51
e 5 51
e 11 51
e 13 51
e 14 51
e 21 51
e 22 51
e 25 51
e 29 51
e 31 51
e 40 51
e 43 51
e 49 51
e 1 52
e 2 52
e 8 52
e 9 52
e 12 52
e 15 52
e 20 52
e 23 52
e 31 52
e 34 52
e 36 52
e 37 52
e 46 52
e 51 52
e 1 53
e 9 53
e 16 53
e 24 53
e 25 53
e 38 53
e 43 53
e 50 53
e 1 54
e 10 54
e 24 54
e 33 54
e 43 54
e 44 54
e 48 54
e 50 54
e 51 54
e 5 55
e 10 55
e 14 55
e 29 55
e 31 55
e 35 55
e 41 55
e 46 55
e 47 55
e 49 55
e 54 55
e 25 56
e 29 56
e 30 56
e 38 56
e 42 56
e 49 56
e 53 56
e 5 57
e 11 57
e 15 57
e 17 57
e 18 57
e 24 57
e 25 57
e 28 57
e 32 57
e 39 57
e 40 57
e 41 57
e 49 57
e 1 58
e 3 58
e 4 58
e 5 58
e 13 58
e 17 58
e 19 58
e 22 58
e 24 58
e 29 58
e 30 58
e 37 58
e 47 58
e 51 58
e 52 58
e 1 59
e 12 59
e 31 59
e 37 59
e 41 59
e 43 59
e 49 59
e 52 59
e 55 59
e 58 59
e 11 60
e 13 60
e 21 60
e 24 60
e 26 60
e 34 60
e 35 60
e 44 60
e 46 60
e 47 60
e 48 60
e 50 60
